15,1	0,0	14,5	18,9	0,0	0,0	0,0	0,0	0,0	6,2
11,5	13,0	0,0	9,8	6,4	0,0	0,0	13,1	0,0	0,0
0,0	0,0	18,3	0,0	17,3	19,6	0,0	0,0	13,0	0,0
6,7	0,0	9,5	0,0	0,0	0,0	5,1	0,0	0,0	0,0
0,0	7,1	0,0	7,6	15,7	0,0	0,0	16,5	0,0	0,0
0,0	10,0	12,1	0,0	9,5	14,8	0,0	0,0	17,7	0,0
0,0	14,1	0,0	7,1	0,0	0,0	12,8	0,0	0,0	12,3
13,3	0,0	5,6	0,0	0,0	0,0	0,0	0,0	0,0	16,6
0,0	6,5	0,0	7,0	6,1	0,0	0,0	18,3	0,0	0,0
0,0	0,0	11,5	0,0	0,0	18,3	10,5	0,0	0,0	14,2
0,0	8,6	0,0	0,0	13,8	0,0	18,8	0,0	12,4	8,0
10,2	0,0	15,3	0,0	12,5	0,0	18,2	10,6	16,4	0,0
0,0	10,3	0,0	0,0	0,0	9,7	0,0	17,7	15,5	13,0
16,7	5,6	12,1	0,0	0,0	11,4	0,0	13,5	9,3	0,0
17,6	0,0	9,1	0,0	16,3	9,3	13,2	5,3	0,0	0,0
0,0	16,0	0,0	17,2	0,0	16,3	0,0	9,2	0,0	0,0
9,1	0,0	10,8	8,5	12,5	0,0	0,0	18,6	0,0	0,0
0,0	0,0	10,2	0,0	0,0	5,6	9,9	0,0	14,0	7,2
10,1	0,0	0,0	8,1	9,8	15,8	6,7	6,9	0,0	7,7
0,0	12,2	0,0	9,5	0,0	0,0	10,9	0,0	7,0	11,4
									
4,6	3,7	5,0	3,4	3,1	4,6	4,5	3,9	4,7	4,0
